8031
4, 25, 12, 28, 26, 47, 27, 13, 14, 52, 11, 51, 33, 43, 10, 9, 8, 41, 19, 45, 32, 49, 1, 22, 21, 30, 2, 7, 42, 17, 3, 18, 31, 23, 20, 29, 50, 16, 46, 44, 34, 36, 35, 37, 39, 40, 38, 48, 24, 15, 5, 6
